&GLOBAL
  PROJECT small-clusters
  PREFERRED_FFT_LIBRARY FFTW
  FFTW_PLAN_TYPE MEASURE
  RUN_TYPE MD
  PRINT_LEVEL LOW
  &DBCSR
    MM_DRIVER BLAS
  &END DBCSR
  ENABLE_MPI_IO .FALSE.
  WALLTIME 13800
&END GLOBAL